196
0 173 3 113 138 167 115 59 55 153 
150 96 81 126 92 83 144 119 2 118 
54 120 62 136 64 41 11 27 107 182 
78 189 73 48 158 35 157 49 171 20 
1 53 24 181 127 87 12 124 5 45 
68 88 21 132 104 37 176 134 137 186 
93 160 133 128 112 195 43 166 31 7 
56 66 50 143 13 151 98 108 91 86 
100 44 179 184 19 97 30 172 39 10 
111 52 36 63 114 142 183 116 18 72 
70 29 180 51 154 65 6 61 105 175 
162 125 149 187 164 169 32 42 76 102 
174 85 25 101 152 170 77 90 163 60 
4 69 135 23 26 148 191 109 147 80 
117 34 129 38 193 146 40 185 15 131 
79 46 67 89 94 17 122 145 156 161 
28 47 82 99 16 177 141 22 74 130 
140 71 110 106 95 159 192 194 33 121 
58 75 84 165 123 188 14 155 9 8 
190 139 168 57 178 103 
